(set-logic QF_BV)
(declare-fun day () (_ BitVec 12))
(declare-fun month () (_ BitVec 12))
(declare-fun year () (_ BitVec 12))
(assert (bvslt year (_ bv0 12)))
(assert (not (or (bvsle month (_ bv0 12)) (bvsgt month (_ bv12 12)) (bvsle day (_ bv0 12)) (bvsgt day (_ bv31 12)))))
(assert (not (bvsgt month (_ bv2 12))))
(assert (not (= year (_ bv1582 12))))
(check-sat)
